c --- [ banner ] -------------------------------------------------------------
c 
c CaDiCaL Radically Simplified CDCL SAT Solver
c Copyright (c) 2016-2021 A. Biere, M. Fleury, N. Froleyks
c 
c Version 1.5.2 9c38a080b32c28d805e8e6ca21849856b0cda605
c g++ (Ubuntu 7.5.0-3ubuntu1~18.04) 7.5.0 -Wall -Wextra -O3 -DNDEBUG
c Wed Feb 16 23:15:36 EST 2022 Linux fac-vanhoeve01 5.4.0-99-generic x86_64
c 
c --- [ limit ] --------------------------------------------------------------
c 
c setting time limit to 600 seconds real time (due to '-t 600')
c setting conflict limit to 1000000000 conflicts (due to '1000000000')
c 
c --- [ parsing input ] ------------------------------------------------------
c 
c reading DIMACS file from 'ddfwcnfs/queen8_12.col_12.cnf'
c opening file to read 'ddfwcnfs/queen8_12.col_12.cnf'
c found 'p cnf 1152 13500' header
c parsed 13500 clauses in 0.01 seconds process time
c closing file 'ddfwcnfs/queen8_12.col_12.cnf'
c after reading 161179 bytes 0.2 MB
c 
c --- [ options ] ------------------------------------------------------------
c 
c all options are set to their default value
c 
c --- [ solving ] ------------------------------------------------------------
c 
c time measured in process time since initialization
c 
c  seconds  reductions  redundant  irredundant
c         MB    restarts       trail     variables
c          level   conflicts       glue       remaining
c 
c *  0.01  5  0 0   0    0    0  0% 0 13356 1008 88%
c {  0.01  5  0 0   0    0    0  0% 0 13356 1008 88%
c -  0.02  5 11 1   0  300  117 38% 8 13356 1008 88%
c -  0.03  5 11 2  23  902  342 37% 8 13356 1008 88%
c }  0.04  5 11 2  25 1000  406 37% 8 13356 1008 88%
c [  0.04  5  0 2  25 1000  406  0% 0 13356 1008 88%
c O  0.04  5 17 2  25 1003  408 44% 10 13356 1008 88%
c -  0.06  6 13 3  25 1802  709 38% 10 13356 1008 88%
c ]  0.09  6 14 3  26 3001 1596 38% 11 13356 1008 88%
c {  0.09  6 11 3  26 3001 1596 37% 8 13356 1008 88%
c -  0.09  6 11 4  27 3002 1159 27% 8 13356 1008 88%
c F  0.09  6 11 4  28 3005 1162 28% 8 13356 1008 88%
c -  0.13  6 11 5 111 4504 1033 29% 9 13356 1008 88%
c #  0.17  6 11 5 173 6006 1762 29% 9 13356 1008 88%
c -  0.19  6 11 6 184 6306 1259 30% 9 13356 1008 88%
c }  0.20  6 11 6 208 7001 1575 29% 9 13356 1008 88%
c [  0.20  6 14 6 208 7001 1575 43% 11 13356 1008 88%
c s  0.21  6 15 6 209 7456 1519 41% 11 13356 1008 88%
c w  0.22  6 15 6 209 7456 1519 41% 11 13356 1008 88%
c e  0.25  6 15 6 209 7456   83 41% 11 8812 728 63%
c 
c  seconds  reductions  redundant  irredundant
c         MB    restarts       trail     variables
c          level   conflicts       glue      remaining
c 
c ^  0.25  6 15 6 209 7456   83 41% 11 8812 728 63%
c -  0.28  6 18 7 209 8408  786 32% 12 8812 728 63%
c I  0.32  6 19 7 210 10009 1902 32% 12 8812 728 63%
c ]  0.33  6 22 7 210 10148 2033 35% 13 8812 728 63%
c 1  0.33  6 22 7 210 10148 2033 35% 13 8812 728 63%
c 
c --- [ result ] -------------------------------------------------------------
c 
s SATISFIABLE
v -1 2 -3 -4 -5 -6 -7 -8 -9 -10 -11 -12 -13 -14 -15 -16 -17 -18 -19 -20 -21
v -22 -23 24 -25 -26 -27 -28 -29 -30 -31 32 -33 -34 -35 -36 -37 -38 -39 -40
v -41 -42 -43 -44 -45 46 -47 -48 -49 -50 -51 -52 -53 -54 -55 -56 -57 -58 59
v -60 -61 -62 63 -64 -65 -66 -67 -68 -69 -70 -71 -72 -73 -74 -75 -76 -77 78
v -79 -80 -81 -82 -83 -84 -85 -86 -87 -88 -89 -90 -91 -92 93 -94 -95 -96 -97
v -98 -99 100 -101 -102 -103 -104 -105 -106 -107 -108 109 -110 -111 -112 -113
v -114 -115 -116 -117 -118 -119 -120 -121 -122 -123 -124 125 -126 -127 -128
v -129 -130 -131 -132 -133 -134 -135 -136 -137 -138 139 -140 -141 -142 -143
v -144 -145 -146 -147 -148 -149 -150 -151 -152 -153 -154 155 -156 -157 -158
v -159 -160 -161 162 -163 -164 -165 -166 -167 -168 -169 -170 -171 -172 -173
v -174 175 -176 -177 -178 -179 -180 -181 -182 -183 -184 185 -186 -187 -188
v -189 -190 -191 -192 193 -194 -195 -196 -197 -198 -199 -200 -201 -202 -203
v -204 -205 -206 -207 -208 -209 -210 -211 -212 213 -214 -215 -216 -217 -218
v -219 220 -221 -222 -223 -224 -225 -226 -227 -228 -229 -230 -231 -232 -233
v -234 -235 -236 -237 238 -239 -240 -241 242 -243 -244 -245 -246 -247 -248
v -249 -250 -251 -252 -253 -254 -255 -256 -257 -258 -259 260 -261 -262 -263
v -264 -265 -266 -267 -268 -269 -270 -271 -272 -273 -274 -275 276 -277 -278
v 279 -280 -281 -282 -283 -284 -285 -286 -287 -288 -289 -290 -291 -292 -293
v -294 -295 -296 297 -298 -299 -300 -301 -302 303 -304 -305 -306 -307 -308
v -309 -310 -311 -312 -313 -314 -315 316 -317 -318 -319 -320 -321 -322 -323
v -324 -325 -326 -327 -328 -329 330 -331 -332 -333 -334 -335 -336 -337 -338
v -339 -340 -341 -342 343 -344 -345 -346 -347 -348 -349 350 -351 -352 -353
v -354 -355 -356 -357 -358 -359 -360 -361 -362 -363 -364 365 -366 -367 -368
v -369 -370 -371 -372 -373 -374 -375 -376 -377 -378 -379 -380 -381 -382 -383
v 384 385 -386 -387 -388 -389 -390 -391 -392 -393 -394 -395 -396 -397 -398
v -399 -400 -401 -402 -403 -404 -405 -406 407 -408 -409 -410 -411 -412 -413
v -414 -415 -416 -417 418 -419 -420 -421 -422 -423 -424 -425 -426 -427 428
v -429 -430 -431 -432 -433 -434 -435 436 -437 -438 -439 -440 -441 -442 -443
v -444 -445 -446 -447 -448 -449 -450 451 -452 -453 -454 -455 -456 -457 458
v -459 -460 -461 -462 -463 -464 -465 -466 -467 -468 -469 -470 -471 -472 -473
v -474 -475 -476 -477 -478 479 -480 -481 -482 -483 -484 -485 -486 -487 488
v -489 -490 -491 -492 493 -494 -495 -496 -497 -498 -499 -500 -501 -502 -503
v -504 -505 -506 -507 -508 -509 -510 -511 -512 513 -514 -515 -516 -517 -518
v 519 -520 -521 -522 -523 -524 -525 -526 -527 -528 -529 -530 -531 -532 -533
v -534 -535 -536 -537 538 -539 -540 -541 -542 -543 -544 -545 -546 -547 -548
v -549 -550 -551 552 -553 -554 -555 -556 -557 558 -559 -560 -561 -562 -563
v -564 -565 -566 -567 -568 569 -570 -571 -572 -573 -574 -575 -576 -577 -578
v -579 -580 -581 582 -583 -584 -585 -586 -587 -588 -589 -590 -591 -592 -593
v -594 -595 596 -597 -598 -599 -600 -601 -602 -603 -604 -605 -606 -607 -608
v -609 610 -611 -612 -613 -614 -615 -616 -617 -618 -619 -620 -621 -622 -623
v 624 -625 -626 627 -628 -629 -630 -631 -632 -633 -634 -635 -636 -637 -638
v -639 -640 641 -642 -643 -644 -645 -646 -647 -648 -649 -650 -651 -652 -653
v -654 -655 -656 -657 -658 659 -660 -661 -662 -663 664 -665 -666 -667 -668
v -669 -670 -671 -672 -673 -674 -675 -676 -677 -678 679 -680 -681 -682 -683
v -684 -685 -686 -687 -688 -689 -690 -691 -692 693 -694 -695 -696 -697 698
v -699 -700 -701 -702 -703 -704 -705 -706 -707 -708 709 -710 -711 -712 -713
v -714 -715 -716 -717 -718 -719 -720 -721 -722 -723 -724 725 -726 -727 -728
v -729 -730 -731 -732 733 -734 -735 -736 -737 -738 -739 -740 -741 -742 -743
v -744 -745 -746 -747 -748 -749 -750 -751 -752 -753 -754 755 -756 -757 -758
v -759 -760 -761 -762 -763 764 -765 -766 -767 -768 -769 -770 -771 772 -773
v -774 -775 -776 -777 -778 -779 -780 -781 -782 -783 -784 -785 -786 -787 -788
v -789 790 -791 -792 -793 -794 795 -796 -797 -798 -799 -800 -801 -802 -803
v -804 -805 806 -807 -808 -809 -810 -811 -812 -813 -814 -815 -816 -817 -818
v -819 -820 -821 -822 -823 -824 -825 -826 -827 828 -829 -830 -831 -832 -833
v 834 -835 -836 -837 -838 -839 -840 -841 -842 -843 -844 -845 -846 847 -848
v -849 -850 -851 -852 -853 -854 -855 -856 -857 -858 -859 -860 861 -862 -863
v -864 -865 -866 -867 -868 -869 -870 -871 -872 -873 -874 -875 876 -877 -878
v -879 -880 -881 -882 -883 -884 -885 886 -887 -888 -889 -890 -891 -892 -893
v -894 -895 -896 897 -898 -899 -900 -901 -902 -903 -904 -905 -906 907 -908
v -909 -910 -911 -912 -913 914 -915 -916 -917 -918 -919 -920 -921 -922 -923
v -924 -925 -926 -927 -928 -929 -930 -931 932 -933 -934 -935 -936 937 -938
v -939 -940 -941 -942 -943 -944 -945 -946 -947 -948 -949 -950 -951 -952 -953
v -954 -955 -956 -957 -958 959 -960 -961 -962 963 -964 -965 -966 -967 -968
v -969 -970 -971 -972 -973 -974 -975 -976 977 -978 -979 -980 -981 -982 -983
v -984 -985 -986 -987 988 -989 -990 -991 -992 -993 -994 -995 -996 -997 -998
v -999 -1000 -1001 1002 -1003 -1004 -1005 -1006 -1007 -1008 1009 -1010 -1011
v -1012 -1013 -1014 -1015 -1016 -1017 -1018 -1019 -1020 -1021 1022 -1023 -1024
v -1025 -1026 -1027 -1028 -1029 -1030 -1031 -1032 -1033 -1034 1035 -1036 -1037
v -1038 -1039 -1040 -1041 -1042 -1043 -1044 -1045 -1046 -1047 1048 -1049 -1050
v -1051 -1052 -1053 -1054 -1055 -1056 -1057 -1058 -1059 -1060 1061 -1062 -1063
v -1064 -1065 -1066 -1067 -1068 -1069 -1070 -1071 -1072 -1073 1074 -1075 -1076
v -1077 -1078 -1079 -1080 -1081 -1082 -1083 -1084 -1085 -1086 1087 -1088 -1089
v -1090 -1091 -1092 -1093 -1094 -1095 -1096 -1097 -1098 -1099 1100 -1101 -1102
v -1103 -1104 -1105 -1106 -1107 -1108 -1109 -1110 -1111 -1112 1113 -1114 -1115
v -1116 -1117 -1118 -1119 -1120 -1121 -1122 -1123 -1124 -1125 1126 -1127 -1128
v -1129 -1130 -1131 -1132 -1133 -1134 -1135 -1136 -1137 -1138 1139 -1140 -1141
v -1142 -1143 -1144 -1145 -1146 -1147 -1148 -1149 -1150 -1151 1152 0
c 
c --- [ run-time profiling ] -------------------------------------------------
c 
c process time taken by individual solving procedures
c (percentage relative to process time for solving)
c 
c         0.28   84.66% search
c         0.14   44.17% stable
c         0.13   40.18% unstable
c         0.05   15.27% simplify
c         0.02    5.22% elim
c         0.01    2.67% subsume
c         0.01    2.21% parse
c         0.00    1.09% probe
c         0.00    1.03% vivify
c         0.00    0.91% ternary
c         0.00    0.20% lucky
c   =================================
c         0.33   97.57% solve
c 
c last line shows process time for solving
c (percentage relative to total process time)
c 
c --- [ statistics ] ---------------------------------------------------------
c 
c chronological:              2071        20.41 %  of conflicts
c conflicts:                 10148     31003.39    per second
c decisions:                 12423     37953.80    per second
c eliminated:                  280        24.31 %  of all variables
c fixed:                       144        12.50 %  of all variables
c learned:                   10075        99.28 %  per conflict
c learned_lits:             279988       100.00 %  learned literals
c minimized:                     0         0.00 %  learned literals
c shrunken:                 121003        43.22 %  learned literals
c minishrunken:               7237         2.58 %  learned literals
c propagations:             998200         3.05 M  per second
c reduced:                    2263        22.30 %  per conflict
c rephased:                      4      2537.00    interval
c restarts:                    210        48.32    interval
c stabilizing:                   2        50.73 %  of conflicts
c subsumed:                   4343         8.65 %  of all clauses
c strengthened:                 89         0.18 %  of all clauses
c vivified:                      2         0.00 %  of all clauses
c weakened:                   6210         2.31    average size
c 
c seconds are measured in process time for solving
c 
c --- [ resources ] ----------------------------------------------------------
c 
c total process time since initialization:         0.34    seconds
c total real time since initialization:            0.34    seconds
c maximum resident set size of process:            6.21    MB
c 
c --- [ shutting down ] ------------------------------------------------------
c 
c exit 10
